# Richard Kaye: How Complicated is Minesweeper?
# http://web.mat.bham.ac.uk/R.W.Kaye/minesw/ASE2003.pdf
#
# A Wire,page 33
# (2 solutions)
#
param r := 5;
param c := 14;
param game: 1 2 3 4 5 6 7 8 9 10 11 12 13 14:=
  1  . 0 0 0 0 0 0 0 0 0 0 0 0 . 
  2  . 1 1 1 1 1 1 1 1 1 1 1 1 . 
  3  . . 1 . . 1 . . 1 . . 1 . . 
  4  . 1 1 1 1 1 1 1 1 1 1 1 1 . 
  5  . 0 0 0 0 0 0 0 0 0 0 0 0 . 
;
